NAME: tsp5_11
COMMENT: 5-tsp problem (Padberg/Rinaldi)
TYPE: TSP
DIMENSION: 5
EDGE_WEIGHT_TYPE : EUC_2D
NODE_COORD_SECTION
1.00 19.33 23.30
2.00 23.95 13.28
3.00 31.85 6.85
4.00 24.60 11.10
5.00 6.88 5.00
